(set-info :smt-lib-version 2.6)
(set-logic QF_SLIA)
(set-info :source |
Generated by: Denghang Hu
Generated on: 2023-03-29
Application: Evaluate string solvers
Description: The instance consists of:
(1) a regular membership predicate from the real world
(2) a regular membership predicate to sanitize danger letters in javascript such as <,>,&,",'
(3) a lower bound for string length
Target solver: Ostrich, Z3str3, CVC5
|)
(set-info :license "https://creativecommons.org/licenses/by/4.0/")
(set-info :category "industrial")
(set-info :status unknown)
        ;test regex ..[V|v|pri|Pri|Od|od|Do|do|Z|z|na|Na|Nad|nad][ ][A-Z]{0,10}
(declare-const X String)
(assert (str.in_re X (re.++ (re.diff re.allchar (str.to_re "\n")) (re.++ (re.diff re.allchar (str.to_re "\n")) (re.++ (re.union (str.to_re "V") (re.union (str.to_re "|") (re.union (str.to_re "v") (re.union (str.to_re "|") (re.union (str.to_re "p") (re.union (str.to_re "r") (re.union (str.to_re "i") (re.union (str.to_re "|") (re.union (str.to_re "P") (re.union (str.to_re "r") (re.union (str.to_re "i") (re.union (str.to_re "|") (re.union (str.to_re "O") (re.union (str.to_re "d") (re.union (str.to_re "|") (re.union (str.to_re "o") (re.union (str.to_re "d") (re.union (str.to_re "|") (re.union (str.to_re "D") (re.union (str.to_re "o") (re.union (str.to_re "|") (re.union (str.to_re "d") (re.union (str.to_re "o") (re.union (str.to_re "|") (re.union (str.to_re "Z") (re.union (str.to_re "|") (re.union (str.to_re "z") (re.union (str.to_re "|") (re.union (str.to_re "n") (re.union (str.to_re "a") (re.union (str.to_re "|") (re.union (str.to_re "N") (re.union (str.to_re "a") (re.union (str.to_re "|") (re.union (str.to_re "N") (re.union (str.to_re "a") (re.union (str.to_re "d") (re.union (str.to_re "|") (re.union (str.to_re "n") (re.union (str.to_re "a") (str.to_re "d"))))))))))))))))))))))))))))))))))))))))) (re.++ (str.to_re " ") ((_ re.loop 0 10) (re.range "A" "Z"))))))))
; sanitize danger characters:  < > ' " &
(assert (not (str.in_re X (re.++ re.all (re.union (str.to_re "\u{3c}") (str.to_re "\u{3e}") (str.to_re "\u{27}") (str.to_re "\u{22}") (str.to_re "\u{26}")) re.all))))
(assert (< 20 (str.len X)))
(check-sat)
(exit)
